
Gurobi 11.0.0 (win64) logging started Sat Jun 15 09:54:04 2024

Set parameter LogFile to value "./GurobiLog/stage_2_iter_11.log"
Gurobi Optimizer version 11.0.0 build v11.0.0rc2 (win64 - Windows 10.0 (18363.2))

CPU model: Intel(R) Core(TM) i7-8700 CPU @ 3.20GHz, instruction set [SSE2|AVX|AVX2]
Thread count: 6 physical cores, 12 logical processors, using up to 1 threads

Optimize a model with 1492 rows, 20461 columns and 81721 nonzeros
Coefficient statistics:
  Matrix range     [1e-02, 7e+03]
  Objective range  [1e-01, 2e+05]
  Bounds range     [1e+00, 6e+05]
  RHS range        [1e+00, 6e+04]
LP warm-start: use basis
Iteration    Objective       Primal Inf.    Dual Inf.      Time
       0    2.1122490e+04   6.480957e+03   0.000000e+00      0s
      72    2.6106180e+04   0.000000e+00   0.000000e+00      0s

Solved in 72 iterations and 0.01 seconds (0.00 work units)
Optimal objective  2.610618000e+04

Gurobi 11.0.0 (win64) logging started Sat Jun 15 10:52:19 2024

Set parameter LogFile to value "./GurobiLog/stage_2_iter_11.log"
Gurobi Optimizer version 11.0.0 build v11.0.0rc2 (win64 - Windows 10.0 (18363.2))

CPU model: Intel(R) Core(TM) i7-8700 CPU @ 3.20GHz, instruction set [SSE2|AVX|AVX2]
Thread count: 6 physical cores, 12 logical processors, using up to 1 threads

Optimize a model with 1492 rows, 20461 columns and 82401 nonzeros
Coefficient statistics:
  Matrix range     [3e-03, 1e+04]
  Objective range  [1e-01, 2e+05]
  Bounds range     [3e+00, 5e+05]
  RHS range        [1e+00, 5e+04]
LP warm-start: use basis
Iteration    Objective       Primal Inf.    Dual Inf.      Time
       0    2.6370748e+04   6.766992e+03   0.000000e+00      0s
     147    2.9805714e+04   0.000000e+00   0.000000e+00      0s

Solved in 147 iterations and 0.01 seconds (0.01 work units)
Optimal objective  2.980571398e+04
